12 40 6 10
14 7 12 5 17 10 14 3 6 2 7 6 3 13 13 4 9 20 11 12 7 12 3 10 3 14 12 14 17 7 11 5 7 12 8 5 7 19 19 3 
2.77 5.09 5.08 6.56 1.33 3.94 7.89 7.81 7.84 3.79 1.86 7.48 3.79 6.04 2.01 2.48 2.75 5.61 3.63 0.94 2.06 3.29 4.77 6.1 3.74 5.72 4.93 3.02 4.67 0.94 6.9 2.85 6.1 7.46 1.01 3.11 1.18 3.45 5.82 1.15 
5.28 1.99 3.74 2.98 3.14 6.68 2.11 6.44 6.89 7.38 3.48 1.03 1.41 2.51 0.86 6.39 6.85 5.69 3.56 4.68 2.62 3.5 6.45 1.82 6.26 3.04 6.79 7.79 1.67 4.46 4.52 2.19 1.62 1.09 4.78 2 2.17 4.21 0.93 5.15 
5.78 0.17 3 0.02 6.28 6.59 6.22 0.75 5.63 2.75 6.84 4.89 1.82 4.25 5.49 1.64 3.15 7.21 5.6 3.19 4.44 0.54 0.93 5.29 0.69 2.25 1.22 3.32 1.51 2.92 0.82 0.33 4.94 2.56 6.16 5.39 0.16 1.08 7.99 4.33 
1.92 3.4 6.45 5.28 1.67 4.7 2.79 7.1 0.45 4.44 5.2 5.83 2.45 1.11 7.23 4.97 1.31 2.63 0.37 1.5 4.24 0.9 7.91 2.79 3.76 4.28 7.12 7.27 1.76 1.51 1.42 7.56 1.72 2.22 2.74 4.53 1.45 2.39 5.92 4.06 
7.82 7.07 5.57 2.91 6.43 5.14 0.44 7.25 6 1.26 2.72 1.53 1.59 3.81 2.68 3.81 6.38 7.29 2.22 4.17 0.55 2.53 2.34 7.56 5.73 5.04 6.95 2 0.56 7.3 2.59 0.97 2.44 7.73 4.61 7.08 6.7 2.42 1.39 3.82 
1.7 2.62 6.72 1.65 0.27 0.27 7.06 5.32 0.28 6.38 7.75 7.04 2.31 6.9 0.89 7.06 4.63 0.19 4.09 4.95 0.23 2.42 6.03 7.46 1 2.52 6.97 0.7 7.15 3.64 3.7 2.65 7.33 5.3 1.9 0.86 0.23 4.09 7.03 3.7 
4 4 4 4 4 4 4 4 4 4 4 4 4 4 4 4 4 4 4 4 4 4 4 4 4 4 4 4 4 4 4 4 4 4 4 4 4 4 4 4 
3.13 2.54 7.36 1.48 1.13 6.15 0.21 7.6 1.76 7.17 0.15 6.05 6.06 1.04 0.19 4.84 7.48 3.5 1.86 2.42 2.66 5.37 6.69 4.45 1.54 3.43 0.79 3.74 4.3 2.14 3.83 0.17 6.51 6.97 7.33 7.36 3.9 1.28 7.58 2.31 
2.72 0.15 1.74 5.52 4.21 5.27 2.2 0.66 2.49 5.33 4.76 4.26 5.93 6.99 7.63 6.01 6.65 4.4 7.79 5.21 2.65 7.9 6.26 2.89 4.62 5.86 2.35 4.13 6.43 5.06 3.63 6.26 3.7 0.26 6.24 5.83 0.87 7 7.3 1.62 
7.82 2.08 5.35 5.03 5.76 7.18 5.36 0.3 1.23 5.79 0.75 7.91 4.99 3.26 3.19 0.87 6.52 2.05 5.48 5.46 3.4 1.06 6.98 1.09 3.52 1.52 0.28 1.18 0.47 3.39 6.54 4.67 0.29 7.05 3.55 4.38 1.45 7.86 0.98 2.56 
7.84 6.87 5.51 3.45 1.48 4.89 3.74 5.21 0.43 5.63 7.53 3.01 5.87 4.39 6.57 1.58 2.98 4.5 0.24 1.93 2.51 1.45 5.48 0.25 3.27 3.75 1.41 4.92 6.99 5.43 1.01 2.87 5.06 4.24 0.34 3.47 5.92 0.9 0.89 1.43 
4.6 4.16 4.18 7.75 7.9 5.23 2.72 5.37 3.27 4.24 4.03 4.39 3.86 6.26 1.31 5.66 5.69 7.94 3.2 2.5 4.89 3.78 4.25 3.47 0.01 2.17 3.44 0.67 6.58 6.99 6.07 2.22 1.95 2.75 4.32 7.73 4.86 4.06 2.99 5.66 
1 1 1 1 1 1 1 1 1 1 1 1 1 1 1 1 1 1 1 1 1 1 1 1 1 1 1 1 1 1 1 1 1 1 1 1 1 1 1 1 
1 1 1 1 1 1 1 1 1 1 1 1 1 1 1 1 1 1 1 1 1 1 1 1 1 1 1 1 1 1 1 1 1 1 1 1 1 1 1 1 
1 1 1 1 1 1 1 1 1 1 1 1 1 1 1 1 1 1 1 1 1 1 1 1 1 1 1 1 1 1 1 1 1 1 1 1 1 1 1 1 
1 1 1 1 1 1 1 1 1 1 1 1 1 1 1 1 1 1 1 1 1 1 1 1 1 1 1 1 1 1 1 1 1 1 1 1 1 1 1 1 
1 1 1 1 1 1 1 1 1 1 1 1 1 1 1 1 1 1 1 1 1 1 1 1 1 1 1 1 1 1 1 1 1 1 1 1 1 1 1 1 
1 1 1 1 1 1 1 1 1 1 1 1 1 1 1 1 1 1 1 1 1 1 1 1 1 1 1 1 1 1 1 1 1 1 1 1 1 1 1 1 
1 1 1 1 1 1 1 1 1 1 1 1 1 1 1 1 1 1 1 1 1 1 1 1 1 1 1 1 1 1 1 1 1 1 1 1 1 1 1 1 
1 1 1 1 1 1 1 1 1 1 1 1 1 1 1 1 1 1 1 1 1 1 1 1 1 1 1 1 1 1 1 1 1 1 1 1 1 1 1 1 
1 1 1 1 1 1 1 1 1 1 1 1 1 1 1 1 1 1 1 1 1 1 1 1 1 1 1 1 1 1 1 1 1 1 1 1 1 1 1 1 
1 1 1 1 1 1 1 1 1 1 1 1 1 1 1 1 1 1 1 1 1 1 1 1 1 1 1 1 1 1 1 1 1 1 1 1 1 1 1 1 
1 1 1 1 1 1 1 1 1 1 1 1 1 1 1 1 1 1 1 1 1 1 1 1 1 1 1 1 1 1 1 1 1 1 1 1 1 1 1 1 
1 1 1 1 1 1 1 1 1 1 1 1 1 1 1 1 1 1 1 1 1 1 1 1 1 1 1 1 1 1 1 1 1 1 1 1 1 1 1 1 
0.01 0.01 0.01 0.01 0.01 0.01 0.01 0.01 0.01 0.01 0.01 0.01 0.01 0.01 0.01 0.01 0.01 0.01 0.01 0.01 0.01 0.01 0.01 0.01 0.01 0.01 0.01 0.01 0.01 0.01 0.01 0.01 0.01 0.01 0.01 0.01 0.01 0.01 0.01 0.01 
0.02 0.02 0.02 0.02 0.02 0.02 0.02 0.02 0.02 0.02 0.02 0.02 0.02 0.02 0.02 0.02 0.02 0.02 0.02 0.02 0.02 0.02 0.02 0.02 0.02 0.02 0.02 0.02 0.02 0.02 0.02 0.02 0.02 0.02 0.02 0.02 0.02 0.02 0.02 0.02 
0.03 0.03 0.03 0.03 0.03 0.03 0.03 0.03 0.03 0.03 0.03 0.03 0.03 0.03 0.03 0.03 0.03 0.03 0.03 0.03 0.03 0.03 0.03 0.03 0.03 0.03 0.03 0.03 0.03 0.03 0.03 0.03 0.03 0.03 0.03 0.03 0.03 0.03 0.03 0.03 
0.04 0.04 0.04 0.04 0.04 0.04 0.04 0.04 0.04 0.04 0.04 0.04 0.04 0.04 0.04 0.04 0.04 0.04 0.04 0.04 0.04 0.04 0.04 0.04 0.04 0.04 0.04 0.04 0.04 0.04 0.04 0.04 0.04 0.04 0.04 0.04 0.04 0.04 0.04 0.04 
0.05 0.05 0.05 0.05 0.05 0.05 0.05 0.05 0.05 0.05 0.05 0.05 0.05 0.05 0.05 0.05 0.05 0.05 0.05 0.05 0.05 0.05 0.05 0.05 0.05 0.05 0.05 0.05 0.05 0.05 0.05 0.05 0.05 0.05 0.05 0.05 0.05 0.05 0.05 0.05 
0.06 0.06 0.06 0.06 0.06 0.06 0.06 0.06 0.06 0.06 0.06 0.06 0.06 0.06 0.06 0.06 0.06 0.06 0.06 0.06 0.06 0.06 0.06 0.06 0.06 0.06 0.06 0.06 0.06 0.06 0.06 0.06 0.06 0.06 0.06 0.06 0.06 0.06 0.06 0.06 
0.07 0.07 0.07 0.07 0.07 0.07 0.07 0.07 0.07 0.07 0.07 0.07 0.07 0.07 0.07 0.07 0.07 0.07 0.07 0.07 0.07 0.07 0.07 0.07 0.07 0.07 0.07 0.07 0.07 0.07 0.07 0.07 0.07 0.07 0.07 0.07 0.07 0.07 0.07 0.07 
0.2 0.2 0.2 0.2 0.2 0.2 0.2 0.2 0.2 0.2 0.2 0.2 0.2 0.2 0.2 0.2 0.2 0.2 0.2 0.2 0.2 0.2 0.2 0.2 0.2 0.2 0.2 0.2 0.2 0.2 0.2 0.2 0.2 0.2 0.2 0.2 0.2 0.2 0.2 0.2 
0.4 0.4 0.4 0.4 0.4 0.4 0.4 0.4 0.4 0.4 0.4 0.4 0.4 0.4 0.4 0.4 0.4 0.4 0.4 0.4 0.4 0.4 0.4 0.4 0.4 0.4 0.4 0.4 0.4 0.4 0.4 0.4 0.4 0.4 0.4 0.4 0.4 0.4 0.4 0.4 
0.6 0.6 0.6 0.6 0.6 0.6 0.6 0.6 0.6 0.6 0.6 0.6 0.6 0.6 0.6 0.6 0.6 0.6 0.6 0.6 0.6 0.6 0.6 0.6 0.6 0.6 0.6 0.6 0.6 0.6 0.6 0.6 0.6 0.6 0.6 0.6 0.6 0.6 0.6 0.6 
0.8 0.8 0.8 0.8 0.8 0.8 0.8 0.8 0.8 0.8 0.8 0.8 0.8 0.8 0.8 0.8 0.8 0.8 0.8 0.8 0.8 0.8 0.8 0.8 0.8 0.8 0.8 0.8 0.8 0.8 0.8 0.8 0.8 0.8 0.8 0.8 0.8 0.8 0.8 0.8 
1 1 1 1 1 1 1 1 1 1 1 1 1 1 1 1 1 1 1 1 1 1 1 1 1 1 1 1 1 1 1 1 1 1 1 1 1 1 1 1 
